objective value:                           -6760.6941
x20                                                 1 	(obj:-294.659)
x26                                                 1 	(obj:-571.884)
x66                                                 1 	(obj:-1373.8)
x77                                                 1 	(obj:-340.775)
x84                                                 1 	(obj:-153.185)
x108                                                1 	(obj:-59.7132)
x197                                                1 	(obj:-188.32)
x200                                                1 	(obj:-357.864)
x205                                                1 	(obj:-90.0093)
x258                                                1 	(obj:-676.236)
x289                                                1 	(obj:-226.749)
x324                                                1 	(obj:-299.401)
x347                                                1 	(obj:-46.6526)
x352                                                1 	(obj:-140.663)
x380                                                1 	(obj:-559.357)
x422                                                1 	(obj:-201.027)
x437                                                1 	(obj:-357.209)
x460                                                1 	(obj:-109.63)
x502                                                1 	(obj:-713.56)
